
Gurobi 9.0.1 (linux64) logging started Thu Apr 23 11:19:27 2020

Gurobi Optimizer version 9.0.1 build v9.0.1rc0 (linux64)
Optimize a model with 980 rows, 990 columns and 7152 nonzeros
Model fingerprint: 0x1f2785d2
Variable types: 0 continuous, 990 integer (980 binary)
Coefficient statistics:
  Matrix range     [1e+00, 5e+00]
  Objective range  [1e+01, 9e+01]
  Bounds range     [1e+00, 1e+00]
  RHS range        [1e+00, 1e+00]

User MIP start produced solution with objective 501 (0.00s)
Loaded user MIP start with objective 501

Presolve removed 504 rows and 480 columns
Presolve time: 0.03s
Presolved: 476 rows, 510 columns, 3902 nonzeros
Variable types: 0 continuous, 510 integer (510 binary)

Root relaxation: objective 3.907632e+02, 246 iterations, 0.00 seconds

    Nodes    |    Current Node    |     Objective Bounds      |     Work
 Expl Unexpl |  Obj  Depth IntInf | Incumbent    BestBd   Gap | It/Node Time

     0     0  390.76316    0  134  501.00000  390.76316  22.0%     -    0s
     0     0  403.98333    0  124  501.00000  403.98333  19.4%     -    0s
     0     0  404.19540    0  127  501.00000  404.19540  19.3%     -    0s
     0     0  404.23922    0  130  501.00000  404.23922  19.3%     -    0s
     0     0  413.94042    0  140  501.00000  413.94042  17.4%     -    0s
     0     0  415.53916    0  139  501.00000  415.53916  17.1%     -    0s
     0     0  415.57273    0  135  501.00000  415.57273  17.1%     -    0s
     0     0  415.57485    0  137  501.00000  415.57485  17.1%     -    0s
     0     0  426.39123    0  131  501.00000  426.39123  14.9%     -    0s
     0     0  428.78261    0  124  501.00000  428.78261  14.4%     -    0s
     0     0  429.63636    0  126  501.00000  429.63636  14.2%     -    0s
     0     0  429.71326    0  131  501.00000  429.71326  14.2%     -    0s
     0     0  429.71429    0  127  501.00000  429.71429  14.2%     -    0s
     0     0  432.85112    0  149  501.00000  432.85112  13.6%     -    0s
     0     0  435.51524    0  139  501.00000  435.51524  13.1%     -    0s
     0     0  435.70109    0  143  501.00000  435.70109  13.0%     -    0s
     0     0  436.82875    0  156  501.00000  436.82875  12.8%     -    0s
     0     0  436.85158    0  159  501.00000  436.85158  12.8%     -    0s
     0     0  437.79699    0  136  501.00000  437.79699  12.6%     -    0s
     0     0  437.89524    0  135  501.00000  437.89524  12.6%     -    0s
     0     0  437.92857    0  140  501.00000  437.92857  12.6%     -    0s
     0     0  437.92857    0  140  501.00000  437.92857  12.6%     -    0s
     0     0  439.61111    0  145  501.00000  439.61111  12.3%     -    0s
     0     0  439.80983    0  154  501.00000  439.80983  12.2%     -    0s
     0     0  439.85389    0  157  501.00000  439.85389  12.2%     -    0s
     0     0  439.85713    0  158  501.00000  439.85713  12.2%     -    0s
     0     0  440.35542    0  160  501.00000  440.35542  12.1%     -    0s
H    0     0                     488.0000000  440.35542  9.76%     -    0s
     0     0  440.43860    0  157  488.00000  440.43860  9.75%     -    0s
     0     0  440.65373    0  158  488.00000  440.65373  9.70%     -    0s
     0     0  440.65373    0  155  488.00000  440.65373  9.70%     -    0s
     0     0  441.11991    0  100  488.00000  441.11991  9.61%     -    0s
     0     0  441.11991    0  132  488.00000  441.11991  9.61%     -    0s
     0     0  441.11991    0  100  488.00000  441.11991  9.61%     -    0s
     0     0  441.11991    0  137  488.00000  441.11991  9.61%     -    0s
     0     0  441.11991    0  158  488.00000  441.11991  9.61%     -    0s
     0     0  441.11991    0  149  488.00000  441.11991  9.61%     -    0s
     0     0  441.11991    0  154  488.00000  441.11991  9.61%     -    0s
     0     0  442.51648    0  145  488.00000  442.51648  9.32%     -    0s
     0     0  444.65579    0  148  488.00000  444.65579  8.88%     -    0s
     0     0  445.03902    0  152  488.00000  445.03902  8.80%     -    0s
     0     0  445.15380    0  152  488.00000  445.15380  8.78%     -    0s
     0     0  445.15958    0  153  488.00000  445.15958  8.78%     -    0s
     0     0  446.57146    0  141  488.00000  446.57146  8.49%     -    0s
     0     0  446.99934    0  163  488.00000  446.99934  8.40%     -    0s
     0     0  447.14164    0  151  488.00000  447.14164  8.37%     -    0s
     0     0  447.16359    0  162  488.00000  447.16359  8.37%     -    0s
     0     0  447.32383    0  161  488.00000  447.32383  8.34%     -    0s
     0     0  447.50356    0  156  488.00000  447.50356  8.30%     -    0s
     0     0  447.50563    0  157  488.00000  447.50563  8.30%     -    0s
     0     0  447.59232    0  155  488.00000  447.59232  8.28%     -    0s
     0     0  447.59232    0  155  488.00000  447.59232  8.28%     -    0s
     0     2  447.69151    0  155  488.00000  447.69151  8.26%     -    0s
*   10     4               6     467.0000000  447.69151  4.13%  54.7    0s

Cutting planes:
  Gomory: 2
  Clique: 1
  MIR: 20
  Zero half: 28
  Mod-K: 3
  RLT: 8

Explored 45 nodes (3974 simplex iterations) in 0.59 seconds
Thread count was 1 (of 8 available processors)

Solution count 3: 467 488 501 

Optimal solution found (tolerance 1.00e-04)
Best objective 4.670000000000e+02, best bound 4.670000000000e+02, gap 0.0000%

User-callback calls 614, time in user-callback 0.00 sec

Gurobi 9.0.1 (linux64) logging started Thu Apr 23 12:09:26 2020

Gurobi Optimizer version 9.0.1 build v9.0.1rc0 (linux64)
Optimize a model with 638 rows, 416 columns and 2080 nonzeros
Model fingerprint: 0x904cdc42
Variable types: 0 continuous, 416 integer (392 binary)
Coefficient statistics:
  Matrix range     [1e+00, 6e+00]
  Objective range  [1e+01, 9e+01]
  Bounds range     [1e+00, 1e+00]
  RHS range        [1e+00, 7e+00]

User MIP start produced solution with objective 501 (0.00s)
Loaded user MIP start with objective 501

Presolve removed 414 rows and 224 columns
Presolve time: 0.00s
Presolved: 224 rows, 192 columns, 900 nonzeros
Variable types: 0 continuous, 192 integer (180 binary)

Root relaxation: objective 4.093333e+02, 114 iterations, 0.00 seconds

    Nodes    |    Current Node    |     Objective Bounds      |     Work
 Expl Unexpl |  Obj  Depth IntInf | Incumbent    BestBd   Gap | It/Node Time

     0     0  409.33333    0   23  501.00000  409.33333  18.3%     -    0s
     0     0  430.60000    0   37  501.00000  430.60000  14.1%     -    0s
     0     0  430.85714    0   37  501.00000  430.85714  14.0%     -    0s
     0     0  455.00000    0   38  501.00000  455.00000  9.18%     -    0s
     0     0  458.00000    0   45  501.00000  458.00000  8.58%     -    0s
     0     0  458.00000    0   40  501.00000  458.00000  8.58%     -    0s
     0     0  463.82353    0   48  501.00000  463.82353  7.42%     -    0s
     0     0  463.82353    0   48  501.00000  463.82353  7.42%     -    0s
     0     0  463.82353    0   49  501.00000  463.82353  7.42%     -    0s
     0     0  463.82353    0   49  501.00000  463.82353  7.42%     -    0s
     0     0  466.00000    0   46  501.00000  466.00000  6.99%     -    0s
     0     0  466.00000    0   49  501.00000  466.00000  6.99%     -    0s
     0     0  466.00000    0   45  501.00000  466.00000  6.99%     -    0s
     0     0  466.00000    0   51  501.00000  466.00000  6.99%     -    0s
     0     0  466.00000    0   45  501.00000  466.00000  6.99%     -    0s
     0     0  466.00000    0   45  501.00000  466.00000  6.99%     -    0s
     0     2  466.00000    0   44  501.00000  466.00000  6.99%     -    0s
H   81    45                     479.0000000  466.00000  2.71%  10.9    0s
H  136     1                     467.0000000  466.00000  0.21%  13.9    0s

Explored 139 nodes (2568 simplex iterations) in 0.14 seconds
Thread count was 1 (of 8 available processors)

Solution count 3: 467 479 501 

Optimal solution found (tolerance 1.00e-04)
Best objective 4.670000000000e+02, best bound 4.670000000000e+02, gap 0.0000%

User-callback calls 448, time in user-callback 0.00 sec

Gurobi 9.0.1 (linux64) logging started Thu Apr 23 12:10:30 2020

Gurobi Optimizer version 9.0.1 build v9.0.1rc0 (linux64)
Optimize a model with 980 rows, 990 columns and 7152 nonzeros
Model fingerprint: 0x1f2785d2
Variable types: 0 continuous, 990 integer (980 binary)
Coefficient statistics:
  Matrix range     [1e+00, 5e+00]
  Objective range  [1e+01, 9e+01]
  Bounds range     [1e+00, 1e+00]
  RHS range        [1e+00, 1e+00]

User MIP start produced solution with objective 501 (0.00s)
Loaded user MIP start with objective 501

Presolve removed 504 rows and 480 columns
Presolve time: 0.03s
Presolved: 476 rows, 510 columns, 3902 nonzeros
Variable types: 0 continuous, 510 integer (510 binary)

Root relaxation: objective 3.907632e+02, 246 iterations, 0.00 seconds

    Nodes    |    Current Node    |     Objective Bounds      |     Work
 Expl Unexpl |  Obj  Depth IntInf | Incumbent    BestBd   Gap | It/Node Time

     0     0  390.76316    0  134  501.00000  390.76316  22.0%     -    0s
     0     0  403.98333    0  124  501.00000  403.98333  19.4%     -    0s
     0     0  404.19540    0  127  501.00000  404.19540  19.3%     -    0s
     0     0  404.23922    0  130  501.00000  404.23922  19.3%     -    0s
     0     0  413.94042    0  140  501.00000  413.94042  17.4%     -    0s
     0     0  415.53916    0  139  501.00000  415.53916  17.1%     -    0s
     0     0  415.57273    0  135  501.00000  415.57273  17.1%     -    0s
     0     0  415.57485    0  137  501.00000  415.57485  17.1%     -    0s
     0     0  426.39123    0  131  501.00000  426.39123  14.9%     -    0s
     0     0  428.78261    0  124  501.00000  428.78261  14.4%     -    0s
     0     0  429.63636    0  126  501.00000  429.63636  14.2%     -    0s
     0     0  429.71326    0  131  501.00000  429.71326  14.2%     -    0s
     0     0  429.71429    0  127  501.00000  429.71429  14.2%     -    0s
     0     0  432.85112    0  149  501.00000  432.85112  13.6%     -    0s
     0     0  435.51524    0  139  501.00000  435.51524  13.1%     -    0s
     0     0  435.70109    0  143  501.00000  435.70109  13.0%     -    0s
     0     0  436.82875    0  156  501.00000  436.82875  12.8%     -    0s
     0     0  436.85158    0  159  501.00000  436.85158  12.8%     -    0s
     0     0  437.79699    0  136  501.00000  437.79699  12.6%     -    0s
     0     0  437.89524    0  135  501.00000  437.89524  12.6%     -    0s
     0     0  437.92857    0  140  501.00000  437.92857  12.6%     -    0s
     0     0  437.92857    0  140  501.00000  437.92857  12.6%     -    0s
     0     0  439.61111    0  145  501.00000  439.61111  12.3%     -    0s
     0     0  439.80983    0  154  501.00000  439.80983  12.2%     -    0s
     0     0  439.85389    0  157  501.00000  439.85389  12.2%     -    0s
     0     0  439.85713    0  158  501.00000  439.85713  12.2%     -    0s
     0     0  440.35542    0  160  501.00000  440.35542  12.1%     -    0s
H    0     0                     488.0000000  440.35542  9.76%     -    0s
     0     0  440.43860    0  157  488.00000  440.43860  9.75%     -    0s
     0     0  440.65373    0  158  488.00000  440.65373  9.70%     -    0s
     0     0  440.65373    0  155  488.00000  440.65373  9.70%     -    0s
     0     0  441.11991    0  100  488.00000  441.11991  9.61%     -    0s
     0     0  441.11991    0  132  488.00000  441.11991  9.61%     -    0s
     0     0  441.11991    0  100  488.00000  441.11991  9.61%     -    0s
     0     0  441.11991    0  137  488.00000  441.11991  9.61%     -    0s
     0     0  441.11991    0  158  488.00000  441.11991  9.61%     -    0s
     0     0  441.11991    0  149  488.00000  441.11991  9.61%     -    0s
     0     0  441.11991    0  154  488.00000  441.11991  9.61%     -    0s
     0     0  442.51648    0  145  488.00000  442.51648  9.32%     -    0s
     0     0  444.65579    0  148  488.00000  444.65579  8.88%     -    0s
     0     0  445.03902    0  152  488.00000  445.03902  8.80%     -    0s
     0     0  445.15380    0  152  488.00000  445.15380  8.78%     -    0s
     0     0  445.15958    0  153  488.00000  445.15958  8.78%     -    0s
     0     0  446.57146    0  141  488.00000  446.57146  8.49%     -    0s
     0     0  446.99934    0  163  488.00000  446.99934  8.40%     -    0s
     0     0  447.14164    0  151  488.00000  447.14164  8.37%     -    0s
     0     0  447.16359    0  162  488.00000  447.16359  8.37%     -    0s
     0     0  447.32383    0  161  488.00000  447.32383  8.34%     -    0s
     0     0  447.50356    0  156  488.00000  447.50356  8.30%     -    0s
     0     0  447.50563    0  157  488.00000  447.50563  8.30%     -    0s
     0     0  447.59232    0  155  488.00000  447.59232  8.28%     -    0s
     0     0  447.59232    0  155  488.00000  447.59232  8.28%     -    0s
     0     2  447.69151    0  155  488.00000  447.69151  8.26%     -    0s
*   10     4               6     467.0000000  447.69151  4.13%  54.7    0s

Cutting planes:
  Gomory: 2
  Clique: 1
  MIR: 20
  Zero half: 28
  Mod-K: 3
  RLT: 8

Explored 45 nodes (3974 simplex iterations) in 0.55 seconds
Thread count was 1 (of 8 available processors)

Solution count 3: 467 488 501 

Optimal solution found (tolerance 1.00e-04)
Best objective 4.670000000000e+02, best bound 4.670000000000e+02, gap 0.0000%

User-callback calls 603, time in user-callback 0.00 sec

Gurobi 9.0.1 (linux64) logging started Thu Apr 30 05:57:40 2020

Gurobi Optimizer version 9.0.1 build v9.0.1rc0 (linux64)
Optimize a model with 980 rows, 990 columns and 7152 nonzeros
Model fingerprint: 0x1f2785d2
Variable types: 0 continuous, 990 integer (980 binary)
Coefficient statistics:
  Matrix range     [1e+00, 5e+00]
  Objective range  [1e+01, 9e+01]
  Bounds range     [1e+00, 1e+00]
  RHS range        [1e+00, 1e+00]

User MIP start produced solution with objective 501 (0.01s)
Loaded user MIP start with objective 501

Presolve removed 504 rows and 480 columns
Presolve time: 0.06s
Presolved: 476 rows, 510 columns, 3902 nonzeros
Variable types: 0 continuous, 510 integer (510 binary)

Root relaxation: objective 3.907632e+02, 246 iterations, 0.01 seconds

    Nodes    |    Current Node    |     Objective Bounds      |     Work
 Expl Unexpl |  Obj  Depth IntInf | Incumbent    BestBd   Gap | It/Node Time

     0     0  390.76316    0  134  501.00000  390.76316  22.0%     -    0s
     0     0  403.98333    0  124  501.00000  403.98333  19.4%     -    0s
     0     0  404.19540    0  127  501.00000  404.19540  19.3%     -    0s
     0     0  404.23922    0  130  501.00000  404.23922  19.3%     -    0s
     0     0  413.94042    0  140  501.00000  413.94042  17.4%     -    0s
     0     0  415.53916    0  139  501.00000  415.53916  17.1%     -    0s
     0     0  415.57273    0  135  501.00000  415.57273  17.1%     -    0s
     0     0  415.57485    0  137  501.00000  415.57485  17.1%     -    0s
     0     0  426.39123    0  131  501.00000  426.39123  14.9%     -    0s
     0     0  428.78261    0  124  501.00000  428.78261  14.4%     -    0s
     0     0  429.63636    0  126  501.00000  429.63636  14.2%     -    0s
     0     0  429.71326    0  131  501.00000  429.71326  14.2%     -    0s
     0     0  429.71429    0  127  501.00000  429.71429  14.2%     -    0s
     0     0  432.85112    0  149  501.00000  432.85112  13.6%     -    0s
     0     0  435.51524    0  139  501.00000  435.51524  13.1%     -    0s
     0     0  435.70109    0  143  501.00000  435.70109  13.0%     -    0s
     0     0  436.82875    0  156  501.00000  436.82875  12.8%     -    0s
     0     0  436.85158    0  159  501.00000  436.85158  12.8%     -    0s
     0     0  437.79699    0  136  501.00000  437.79699  12.6%     -    0s
     0     0  437.89524    0  135  501.00000  437.89524  12.6%     -    0s
     0     0  437.92857    0  140  501.00000  437.92857  12.6%     -    0s
     0     0  437.92857    0  140  501.00000  437.92857  12.6%     -    0s
     0     0  439.61111    0  145  501.00000  439.61111  12.3%     -    0s
     0     0  439.80983    0  154  501.00000  439.80983  12.2%     -    0s
     0     0  439.85389    0  157  501.00000  439.85389  12.2%     -    0s
     0     0  439.85713    0  158  501.00000  439.85713  12.2%     -    0s
     0     0  440.35542    0  160  501.00000  440.35542  12.1%     -    0s
H    0     0                     488.0000000  440.35542  9.76%     -    0s
     0     0  440.43860    0  157  488.00000  440.43860  9.75%     -    0s
     0     0  440.65373    0  158  488.00000  440.65373  9.70%     -    0s
     0     0  440.65373    0  155  488.00000  440.65373  9.70%     -    0s
     0     0  441.11991    0  100  488.00000  441.11991  9.61%     -    0s
     0     0  441.11991    0  132  488.00000  441.11991  9.61%     -    0s
     0     0  441.11991    0  100  488.00000  441.11991  9.61%     -    0s
     0     0  441.11991    0  137  488.00000  441.11991  9.61%     -    0s
     0     0  441.11991    0  158  488.00000  441.11991  9.61%     -    0s
     0     0  441.11991    0  149  488.00000  441.11991  9.61%     -    0s
     0     0  441.11991    0  154  488.00000  441.11991  9.61%     -    0s
     0     0  442.51648    0  145  488.00000  442.51648  9.32%     -    0s
     0     0  444.65579    0  148  488.00000  444.65579  8.88%     -    0s
     0     0  445.03902    0  152  488.00000  445.03902  8.80%     -    0s
     0     0  445.15380    0  152  488.00000  445.15380  8.78%     -    0s
     0     0  445.15958    0  153  488.00000  445.15958  8.78%     -    0s
     0     0  446.57146    0  141  488.00000  446.57146  8.49%     -    0s
     0     0  446.99934    0  163  488.00000  446.99934  8.40%     -    0s
     0     0  447.14164    0  151  488.00000  447.14164  8.37%     -    0s
     0     0  447.16359    0  162  488.00000  447.16359  8.37%     -    0s
     0     0  447.32383    0  161  488.00000  447.32383  8.34%     -    0s
     0     0  447.50356    0  156  488.00000  447.50356  8.30%     -    1s
     0     0  447.50563    0  157  488.00000  447.50563  8.30%     -    1s
     0     0  447.59232    0  155  488.00000  447.59232  8.28%     -    1s
     0     0  447.59232    0  155  488.00000  447.59232  8.28%     -    1s
     0     2  447.69151    0  155  488.00000  447.69151  8.26%     -    1s
*   10     4               6     467.0000000  447.69151  4.13%  54.7    1s

Cutting planes:
  Gomory: 2
  Clique: 1
  MIR: 20
  Zero half: 28
  Mod-K: 3
  RLT: 8

Explored 45 nodes (3974 simplex iterations) in 1.22 seconds
Thread count was 1 (of 40 available processors)

Solution count 3: 467 488 501 

Optimal solution found (tolerance 1.00e-04)
Best objective 4.670000000000e+02, best bound 4.670000000000e+02, gap 0.0000%

User-callback calls 789, time in user-callback 0.00 sec
